c This is an instance of the exact track of PACE 2020 Challenge, see https://pacechallenge.org/2020/ 
c TYPE: biology 
c ORIGIN: networkrepository.com 
c DESCRIPTION: ENZYMES is a dataset of protein tertiary structures obtained from (Borgwardt et al., 2005)  consisting of 600 enzymes from the BRENDA enzyme database (Schomburg et al., 2004). Refernces: K. M. Borgwardt, C. S. Ong, S. Schoenauer, S. V. N. Vishwanathan, A. J. Smola, and H. P. Kriegel. Protein function prediction via graph kernels. Bioinformatics, 21(Suppl 1):i47–i56, Jun 2005. I. Schomburg, A. Chang, C. Ebeling, M. Gremse, C. Heldt, G. Huhn, and D. Schomburg. Brenda, the enzyme database: updates and major new developments. Nucleic Acids Research, 32D:431–433, 2010 
p tdp 30 51
1 2
1 6
1 9
1 3
1 10
2 3
2 4
3 27
4 7
4 27
4 30
5 6
5 11
5 12
5 13
6 7
6 8
6 9
6 10
7 11
7 24
8 11
8 13
9 24
10 11
10 24
12 17
12 25
13 17
13 25
14 15
14 18
14 19
15 16
15 17
16 19
16 26
17 25
18 20
18 21
19 25
20 22
20 23
21 22
21 26
21 23
22 23
27 28
27 29
28 30
29 30
